RT is False
Default write of storage_offers_DA.csv just to have a file (but constraint should be inactive)
Reading model...
...model read.
creating competitive generators file...
...competitive generators recorded.
Loading data...
.. day-ahead data with real-time VRE data read.
Compiling instance...
...instance created.
Creating Offer Mitigation (model will solve as dispatch if TRUE)...
NOTE: storage offers will not be mitigated
...storage offer mitigation file created
Converting model to MPEC...
...converted
NOTE: initial MIP solve with only storage competitive to get feasible solution
Solving...

Welcome to IBM(R) ILOG(R) CPLEX(R) Interactive Optimizer 12.9.0.0
  with Simplex, Mixed Integer & Barrier Optimizers
5725-A06 5725-A29 5724-Y48 5724-Y49 5724-Y54 5724-Y55 5655-Y21
Copyright IBM Corp. 1988, 2019.  All Rights Reserved.

Type 'help' for a list of available commands.
Type 'help' followed by a command name for more
information on commands.

CPLEX> Logfile 'cplex.log' closed.
Logfile 'C:\Users\llavin\Desktop\test919\logs\tmpt47twz0n.cplex.log' open.
CPLEX> New value for parallel optimization mode: -1
CPLEX> New value for mixed integer optimality gap tolerance: 0.01
CPLEX> New value for integrality tolerance: 1e-09
CPLEX> New value for feasibility tolerance: 0.01
CPLEX> New value for deterministic time limit in ticks: 100000
CPLEX> Problem 'C:\Users\llavin\Desktop\test919\logs\tmp6r6dxb03.pyomo.lp' read.
Read time = 0.23 sec. (13.86 ticks)
CPLEX> Problem name         : C:\Users\llavin\Desktop\test919\logs\tmp6r6dxb03.pyomo.lp
Objective sense      : Maximize
Variables            :   53321  [Nneg: 1,  Box: 21806,  Free: 4416,
                                 Binary: 27098]
Objective nonzeros   :    9029
Linear constraints   :  122164  [Less: 40983,  Greater: 58612,  Equal: 22569]
  Nonzeros           :  288457
  RHS nonzeros       :   66982

Variables            : Min LB: -5000.000        Max UB: 1000000.       
Objective nonzeros   : Min   : 0.1750000        Max   : 2500.000       
Linear constraints   :
  Nonzeros           : Min   : 0.1750000        Max   : 1000000.       
  RHS nonzeros       : Min   : 0.1750000        Max   : 1000000.       
CPLEX> CPXPARAM_Parallel                                -1
CPXPARAM_Simplex_Tolerances_Feasibility          0.01
CPXPARAM_DetTimeLimit                            100000
CPXPARAM_MIP_Tolerances_MIPGap                   0.01
CPXPARAM_MIP_Tolerances_Integrality              1.0000000000000001e-09
Tried aggregator 3 times.
MIP Presolve eliminated 88153 rows and 19033 columns.
MIP Presolve added 3352 rows and 0 columns.
MIP Presolve modified 24495 coefficients.
Aggregator did 12845 substitutions.
Reduced MIP has 24518 rows, 20887 columns, and 68660 nonzeros.
Reduced MIP has 8272 binaries, 0 generals, 0 SOSs, and 0 indicators.
Presolve time = 0.30 sec. (171.60 ticks)
Probing fixed 425 vars, tightened 2913 bounds.
Probing time = 1.27 sec. (916.21 ticks)
Tried aggregator 2 times.
MIP Presolve eliminated 949 rows and 852 columns.
MIP Presolve modified 2212 coefficients.
Aggregator did 48 substitutions.
Reduced MIP has 23521 rows, 19987 columns, and 65766 nonzeros.
Reduced MIP has 7846 binaries, 0 generals, 0 SOSs, and 0 indicators.
Presolve time = 0.11 sec. (65.14 ticks)
Probing time = 0.03 sec. (15.46 ticks)
Clique table members: 6433.
MIP emphasis: balance optimality and feasibility.
MIP search method: dynamic search.
Parallel mode: opportunistic, using up to 32 threads.
Root relaxation solution time = 0.31 sec. (408.70 ticks)

        Nodes                                         Cuts/
   Node  Left     Objective  IInf  Best Integer    Best Bound    ItCnt     Gap

      0     0       15.7432   691                     15.7432     2733         
      0     0       15.7432   631                   Cuts: 586     3001         
      0     0       15.7432   514                   Cuts: 334     3179         
      0     0       15.7432   444                   Cuts: 192     3283         
      0     0       15.7432   398                    Cuts: 86     3335         
      0     0       15.7432   374                    Cuts: 72     3364         
      0     0       15.7432   362                    Cuts: 37     3381         
      0     0       15.7432   354                    Cuts: 19     3387         
      0     0       15.7432   349                     Cuts: 7     3393         
      0     0       15.7432   347                     Cuts: 2     3394         
      0    16    infeasible                           Cuts: 4     3454         
Elapsed time = 9.89 sec. (5615.88 ticks, tree = 0.02 MB, solutions = 0)
    390   304       15.7432   335                     15.7432     6300         
   1398   925       15.7432   329                     15.7432    12371         
   2569  1565       15.7432   304                     15.7432    13636         
   4079  2586    -3263.2771   289                     15.7432    14346         
   5104  3875       15.7432   187                     15.7432    14804         
   5802  4448    -2719.4191   146                     15.7432    15566         
   6516  4483       15.7432   139                     15.7432    15726         
   7390  7340       15.7432   111                     15.7432    21747         
   8787  6100       15.7432    63                     15.7432    19360         
*  9624  7286      integral     0       15.7432       15.7432    21772    0.00%
Elapsed time = 21.22 sec. (7909.71 ticks, tree = 60.16 MB, solutions = 9)

Clique cuts applied:  2
Cover cuts applied:  3
Implied bound cuts applied:  4
Flow cuts applied:  497
Mixed integer rounding cuts applied:  2
Gomory fractional cuts applied:  19

Root node processing (before b&c):
  Real time             =    8.45 sec. (5600.46 ticks)
Parallel b&c, 32 threads:
  Real time             =   13.25 sec. (2692.59 ticks)
  Sync time (average)   =    0.70 sec.
  Wait time (average)   =    0.00 sec.
                          ------------
Total (root+branch&cut) =   21.70 sec. (8293.05 ticks)

Solution pool: 12 solutions saved.

MIP - Integer optimal solution:  Objective =  1.5743241004e+01
Solution time =   21.77 sec.  Iterations = 24014  Nodes = 10139
Deterministic time = 8293.21 ticks  (381.02 ticks/sec)

CPLEX> Incumbent solution written to file 'C:\Users\llavin\Desktop\test919\logs\tmpadwdi5cj.cplex.sol'.
CPLEX> NOTE: no warmstart specified for MIP iteration, default behavior is true
NOTE: resolving with all competitive generators using storage-only solution to warmstart
Solving...

Welcome to IBM(R) ILOG(R) CPLEX(R) Interactive Optimizer 12.9.0.0
  with Simplex, Mixed Integer & Barrier Optimizers
5725-A06 5725-A29 5724-Y48 5724-Y49 5724-Y54 5724-Y55 5655-Y21
Copyright IBM Corp. 1988, 2019.  All Rights Reserved.

Type 'help' for a list of available commands.
Type 'help' followed by a command name for more
information on commands.

CPLEX> Logfile 'cplex.log' closed.
Logfile 'C:\Users\llavin\Desktop\test919\logs\tmpyx2yt0pb.cplex.log' open.
CPLEX> New value for parallel optimization mode: -1
CPLEX> New value for mixed integer optimality gap tolerance: 0.01
CPLEX> New value for integrality tolerance: 1e-09
CPLEX> New value for feasibility tolerance: 0.01
CPLEX> New value for deterministic time limit in ticks: 100000
CPLEX> Problem 'C:\Users\llavin\Desktop\test919\logs\tmpba963fkh.pyomo.lp' read.
Read time = 0.23 sec. (13.88 ticks)
CPLEX> MIP start file 'C:\Users\llavin\Desktop\test919\logs\tmpu3g4l5dm.cplex.mst' read.
CPLEX> Problem name         : C:\Users\llavin\Desktop\test919\logs\tmpba963fkh.pyomo.lp
Objective sense      : Maximize
Variables            :   54041  [Nneg: 1,  Box: 22526,  Free: 4416,
                                 Binary: 27098]
Objective nonzeros   :    9749
Linear constraints   :  122164  [Less: 40983,  Greater: 58612,  Equal: 22569]
  Nonzeros           :  288457
  RHS nonzeros       :   66982

Variables            : Min LB: -5000.000        Max UB: 1000000.       
Objective nonzeros   : Min   : 0.1750000        Max   : 2500.000       
Linear constraints   :
  Nonzeros           : Min   : 0.1750000        Max   : 1000000.       
  RHS nonzeros       : Min   : 0.1750000        Max   : 1000000.       
CPLEX> CPXPARAM_Parallel                                -1
CPXPARAM_Simplex_Tolerances_Feasibility          0.01
CPXPARAM_DetTimeLimit                            100000
CPXPARAM_MIP_Tolerances_MIPGap                   0.01
CPXPARAM_MIP_Tolerances_Integrality              1.0000000000000001e-09
Warning:  No solution found from 1 MIP starts.
Retaining values of one MIP start for possible repair.
Tried aggregator 3 times.
MIP Presolve eliminated 88153 rows and 19753 columns.
MIP Presolve added 3352 rows and 0 columns.
MIP Presolve modified 24495 coefficients.
Aggregator did 12845 substitutions.
Reduced MIP has 24518 rows, 20887 columns, and 68660 nonzeros.
Reduced MIP has 8272 binaries, 0 generals, 0 SOSs, and 0 indicators.
Presolve time = 0.28 sec. (171.95 ticks)
Probing fixed 425 vars, tightened 2913 bounds.
Probing time = 1.26 sec. (916.21 ticks)
Tried aggregator 2 times.
MIP Presolve eliminated 949 rows and 852 columns.
MIP Presolve modified 2212 coefficients.
Aggregator did 48 substitutions.
Reduced MIP has 23521 rows, 19987 columns, and 65766 nonzeros.
Reduced MIP has 7846 binaries, 0 generals, 0 SOSs, and 0 indicators.
Presolve time = 0.09 sec. (65.14 ticks)
Probing time = 0.03 sec. (15.46 ticks)
Clique table members: 6433.
MIP emphasis: balance optimality and feasibility.
MIP search method: dynamic search.
Parallel mode: opportunistic, using up to 32 threads.
Root relaxation solution time = 0.31 sec. (408.70 ticks)

        Nodes                                         Cuts/
   Node  Left     Objective  IInf  Best Integer    Best Bound    ItCnt     Gap

      0     0       15.7432   691                     15.7432     2733         
      0     0       15.7432   631                   Cuts: 586     3001         
      0     0       15.7432   514                   Cuts: 334     3179         
      0     0       15.7432   444                   Cuts: 192     3283         
      0     0       15.7432   398                    Cuts: 86     3335         
      0     0       15.7432   374                    Cuts: 72     3364         
      0     0       15.7432   362                    Cuts: 37     3381         
      0     0       15.7432   354                    Cuts: 19     3387         
      0     0       15.7432   349                     Cuts: 7     3393         
      0     0       15.7432   347                     Cuts: 2     3394         
Repair heuristic found nothing.
      0    17    infeasible                           Cuts: 4     3447         
Elapsed time = 10.02 sec. (5782.89 ticks, tree = 0.02 MB, solutions = 0)
    422    43    infeasible                           15.7432     3547         
   1305   997   -14116.9992   319                     15.7432     9919         
   2535  1041    -3264.1750   279                     15.7432     9943         
   4164  1605       15.7432   303                     15.7432    10621         
   5217  2638       15.7432   317                     15.7432    11133         
   5879  4694       15.7432   141                     15.7432    12335         
   6571  5114       15.7432   244                     15.7432    13359         
   7349  5727       15.7432   139                     15.7432    15382         
   8519  6513       15.7432   133                     15.7432    16941         
*  9223  6596      integral     0       15.7432       15.7432    17014    0.00%
Elapsed time = 21.52 sec. (8147.70 ticks, tree = 52.05 MB, solutions = 2)

Clique cuts applied:  2
Cover cuts applied:  2
Implied bound cuts applied:  4
Flow cuts applied:  498
Mixed integer rounding cuts applied:  2
Gomory fractional cuts applied:  19

Root node processing (before b&c):
  Real time             =    8.64 sec. (5763.72 ticks)
Parallel b&c, 32 threads:
  Real time             =   13.28 sec. (2763.40 ticks)
  Sync time (average)   =    0.56 sec.
  Wait time (average)   =    0.00 sec.
                          ------------
Total (root+branch&cut) =   21.92 sec. (8527.12 ticks)

Solution pool: 2 solutions saved.

MIP - Integer optimal solution:  Objective =  1.5743241004e+01
Solution time =   21.95 sec.  Iterations = 20240  Nodes = 9431
Deterministic time = 8527.28 ticks  (388.43 ticks/sec)

CPLEX> Incumbent solution written to file 'C:\Users\llavin\Desktop\test919\logs\tmp7rx4jab3.cplex.sol'.
CPLEX> Exporting results... 
